unsat
( c100
  c103
  c1072
  c1073
  c1074
  c1079
  c1080
  c1125
  c1130
  c1134
  c1142
  c1271
  c1273
  c1274
  c1275
  c129
  c1312
  c1426
  c1454
  c1484
  c1489
  c1493
  c1523
  c1566
  c1568
  c1570
  c1571
  c1572
  c1577
  c1629
  c1658
  c1659
  c1660
  c1661
  c1662
  c1663
  c1664
  c1665
  c1666
  c1667
  c1668
  c1669
  c20
  c21
  c279
  c320
  c354
  c358
  c362
  c366
  c368
  c373
  c374
  c398
  c399
  c403
  c404
  c436
  c437
  c438
  c458
  c488
  c576
  c591
  c596
  c599
  c669
  c739
  c768
  c80
  c814
  c89
  c9
  c90
  c91
  c92
  c928
  c956
  c98
  c986
  c99
  c991
  c995 )
